153
0 52 138 140 32 43 76 68 129 101 
112 55 79 56 110 82 117 34 90 142 
141 54 107 114 67 116 64 20 105 49 
70 72 35 19 13 22 33 83 46 47 
121 14 130 143 16 8 93 61 58 137 
53 74 85 102 126 103 84 95 120 1 
94 44 62 86 97 40 127 78 135 136 
148 4 111 89 66 100 98 73 9 57 
152 81 144 18 77 45 150 21 113 151 
10 122 119 30 69 41 38 27 124 71 
147 17 39 104 23 131 6 108 24 59 
123 31 145 7 88 5 60 65 106 87 
26 75 134 29 133 139 28 42 115 50 
36 15 48 51 2 128 11 99 80 125 
92 96 63 91 25 12 146 37 118 109 
149 3 132 
